/* Objective function */
max: 1.1x1 + 1.13x2 + 1.07375x3 + 1.09x4 + 1.1144x5 + 1.167x6 + 1.25x7 + 1.25x8;

/* Constraints */
x1 + x2 + x3 + x4 + x5 + x6 + x7 + x8 = 2500000;
x1 + x2 + x3  <= 1000000;
x4 + x5 + x6 <= 1000000;
x7 + x8 <= 1000000;
x1 >= 100000;
x2 >= 100000;
x3 >= 100000;
x4 >= 100000;
x5 >= 100000;
x6 >= 100000;
x7 >= 100000;
x8 >= 100000;
x1 = 1000y1;
x2 = 1000y2;
x3 = 1000y3;
x4 = 1000y4;
x5 = 1000y5;
x6 = 1000y6;
x7 = 1000y7;
x8 = 1000y8;

sec x1, x2, x3, x4, x5, x6, x7, x8, y1, y2, y3, y4, y5, y6, y7, y8;